ISMEAR =  0            (Gaussian smearing)
SIGMA  =  0.01         (Smearing value in eV)
EDIFF  =  1E-08        (SCF energy convergence, in eV)
PREC   =  Accurate     (Precision level)
# ENCUT  =  500        (Cut-off energy for plane wave basis set, in eV)
IALGO  =  38           (Davidson block iteration scheme)
LREAL  = .FALSE.       (Projection operators: false)
LWAVE  = .FALSE.       (Write WAVECAR or not)
LCHARG = .FALSE.       (Write CHGCAR or not)
ADDGRID= .TRUE.        (Increase grid, helps GGA convergence)
IBRION =  8            (Calculate phonon frequencies using finite differences approach)
LPHON_DISPERSION = T   (Calculate phonon dispersion along the q-point path supplied in file QPOINTS)
PHON_NWRITE = -3       (Both phonon eigenvectors and phonon frequencies are written for each q point)
 
