0.020   8   8   1   34  0.050   38    4   10    9   10    9           # Parameters to Generate KPOINTS (Do NOT Edit This Line)
    72
Reciprocal lattice
    0.00000000000000    0.00000000000000    0.00000000000000     1
    0.12500000000000    0.00000000000000    0.00000000000000     2
    0.25000000000000    0.00000000000000    0.00000000000000     2
    0.37500000000000    0.00000000000000    0.00000000000000     2
    0.50000000000000    0.00000000000000    0.00000000000000     1
    0.00000000000000    0.12500000000000    0.00000000000000     2
    0.12500000000000    0.12500000000000    0.00000000000000     2
    0.25000000000000    0.12500000000000    0.00000000000000     2
    0.37500000000000    0.12500000000000    0.00000000000000     2
    0.50000000000000    0.12500000000000    0.00000000000000     2
   -0.37500000000000    0.12500000000000    0.00000000000000     2
   -0.25000000000000    0.12500000000000    0.00000000000000     2
   -0.12500000000000    0.12500000000000    0.00000000000000     2
    0.00000000000000    0.25000000000000    0.00000000000000     2
    0.12500000000000    0.25000000000000    0.00000000000000     2
    0.25000000000000    0.25000000000000    0.00000000000000     2
    0.37500000000000    0.25000000000000    0.00000000000000     2
    0.50000000000000    0.25000000000000    0.00000000000000     2
   -0.37500000000000    0.25000000000000    0.00000000000000     2
   -0.25000000000000    0.25000000000000    0.00000000000000     2
   -0.12500000000000    0.25000000000000    0.00000000000000     2
    0.00000000000000    0.37500000000000    0.00000000000000     2
    0.12500000000000    0.37500000000000    0.00000000000000     2
    0.25000000000000    0.37500000000000    0.00000000000000     2
    0.37500000000000    0.37500000000000    0.00000000000000     2
    0.50000000000000    0.37500000000000    0.00000000000000     2
   -0.37500000000000    0.37500000000000    0.00000000000000     2
   -0.25000000000000    0.37500000000000    0.00000000000000     2
   -0.12500000000000    0.37500000000000    0.00000000000000     2
    0.00000000000000    0.50000000000000    0.00000000000000     1
    0.12500000000000    0.50000000000000    0.00000000000000     2
    0.25000000000000    0.50000000000000    0.00000000000000     2
    0.37500000000000    0.50000000000000    0.00000000000000     2
    0.50000000000000    0.50000000000000    0.00000000000000     1
    0.00000000000000    0.00000000000000    0.00000000000000     0
    0.05555555555556    0.00000000000000    0.00000000000000     0
    0.11111111111111    0.00000000000000    0.00000000000000     0
    0.16666666666667    0.00000000000000    0.00000000000000     0
    0.22222222222222    0.00000000000000    0.00000000000000     0
    0.27777777777778    0.00000000000000    0.00000000000000     0
    0.33333333333333    0.00000000000000    0.00000000000000     0
    0.38888888888889    0.00000000000000    0.00000000000000     0
    0.44444444444444    0.00000000000000    0.00000000000000     0
    0.50000000000000    0.00000000000000    0.00000000000000     0
    0.50000000000000    0.00000000000000    0.00000000000000     0
    0.50000000000000    0.06250000000000    0.00000000000000     0
    0.50000000000000    0.12500000000000    0.00000000000000     0
    0.50000000000000    0.18750000000000    0.00000000000000     0
    0.50000000000000    0.25000000000000    0.00000000000000     0
    0.50000000000000    0.31250000000000    0.00000000000000     0
    0.50000000000000    0.37500000000000    0.00000000000000     0
    0.50000000000000    0.43750000000000    0.00000000000000     0
    0.50000000000000    0.50000000000000    0.00000000000000     0
    0.50000000000000    0.50000000000000    0.00000000000000     0
    0.44444444444444    0.50000000000000    0.00000000000000     0
    0.38888888888889    0.50000000000000    0.00000000000000     0
    0.33333333333333    0.50000000000000    0.00000000000000     0
    0.27777777777778    0.50000000000000    0.00000000000000     0
    0.22222222222222    0.50000000000000    0.00000000000000     0
    0.16666666666667    0.50000000000000    0.00000000000000     0
    0.11111111111111    0.50000000000000    0.00000000000000     0
    0.05555555555556    0.50000000000000    0.00000000000000     0
    0.00000000000000    0.50000000000000    0.00000000000000     0
    0.00000000000000    0.50000000000000    0.00000000000000     0
    0.00000000000000    0.43750000000000    0.00000000000000     0
    0.00000000000000    0.37500000000000    0.00000000000000     0
    0.00000000000000    0.31250000000000    0.00000000000000     0
    0.00000000000000    0.25000000000000    0.00000000000000     0
    0.00000000000000    0.18750000000000    0.00000000000000     0
    0.00000000000000    0.12500000000000    0.00000000000000     0
    0.00000000000000    0.06250000000000    0.00000000000000     0
    0.00000000000000    0.00000000000000    0.00000000000000     0
