system-gamma                            
   1.00000000000000     
     4.8000001906999996    0.0000000000000000    0.0000000000000000
     0.0000000000000000    5.6300001143999996    0.0000000000000000
     0.0000000000000000    0.0000000000000000   20.0000000000000000
   P    C 
     4     4
Direct
  0.7247877492773641  0.8734342667191600  0.2677664192882868
  0.2726111047226322  0.8734347747191594  0.2677655132882900
  0.2247860050002386  0.6123499536956947  0.1802285097813778
  0.7726103149997613  0.6123486406956962  0.1802293917813797
  0.8473455144413263  0.1539432791087627  0.2338202073813633
  0.3473459410703533  0.3318543304763808  0.2141850825489661
  0.6500480199296470  0.3318533354763873  0.2141853685489685
  0.1500487195586716  0.1539430141087656  0.2338195393813649
 
  0.00000000E+00  0.00000000E+00  0.00000000E+00
  0.00000000E+00  0.00000000E+00  0.00000000E+00
  0.00000000E+00  0.00000000E+00  0.00000000E+00
  0.00000000E+00  0.00000000E+00  0.00000000E+00
  0.00000000E+00  0.00000000E+00  0.00000000E+00
  0.00000000E+00  0.00000000E+00  0.00000000E+00
  0.00000000E+00  0.00000000E+00  0.00000000E+00
  0.00000000E+00  0.00000000E+00  0.00000000E+00
