PdTe2                                   
   1.00000000000000     
     6.1399999999999997    0.0000000000000000    0.0000000000000000
     0.0000000000000000    6.4400000000000004    0.0000000000000000
     0.0000000000000000    0.0000000000000000   18.0000000000000000
   Pd   Te
     2     4
Direct
  0.4357065144134614  0.5606421138451525  0.5005080643376028
  0.9356999502488014  0.0606379544586950  0.5004993559688212
  0.3116114206879037  0.9346504382014331  0.4538423723109376
  0.0598275810986101  0.4346320727758213  0.5471661693170788
  0.5598222073135766  0.1866413592405812  0.5471618981557806
  0.8116202980463897  0.6866351264176157  0.4538602745302965
 
  0.00000000E+00  0.00000000E+00  0.00000000E+00
  0.00000000E+00  0.00000000E+00  0.00000000E+00
  0.00000000E+00  0.00000000E+00  0.00000000E+00
  0.00000000E+00  0.00000000E+00  0.00000000E+00
  0.00000000E+00  0.00000000E+00  0.00000000E+00
  0.00000000E+00  0.00000000E+00  0.00000000E+00
